p cnf 250 3234
1 2 3 4 5 0
6 7 8 9 10 0
11 12 13 14 15 0
16 17 18 19 20 0
21 22 23 24 25 0
26 27 28 29 30 0
31 32 33 34 35 0
36 37 38 39 40 0
41 42 43 44 45 0
46 47 48 49 50 0
51 52 53 54 55 0
56 57 58 59 60 0
61 62 63 64 65 0
66 67 68 69 70 0
71 72 73 74 75 0
76 77 78 79 80 0
81 82 83 84 85 0
86 87 88 89 90 0
91 92 93 94 95 0
96 97 98 99 100 0
101 102 103 104 105 0
106 107 108 109 110 0
111 112 113 114 115 0
116 117 118 119 120 0
121 122 123 124 125 0
126 127 128 129 130 0
131 132 133 134 135 0
136 137 138 139 140 0
141 142 143 144 145 0
146 147 148 149 150 0
151 152 153 154 155 0
156 157 158 159 160 0
161 162 163 164 165 0
166 167 168 169 170 0
171 172 173 174 175 0
176 177 178 179 180 0
181 182 183 184 185 0
186 187 188 189 190 0
191 192 193 194 195 0
196 197 198 199 200 0
201 202 203 204 205 0
206 207 208 209 210 0
211 212 213 214 215 0
216 217 218 219 220 0
221 222 223 224 225 0
226 227 228 229 230 0
231 232 233 234 235 0
236 237 238 239 240 0
241 242 243 244 245 0
246 247 248 249 250 0
-1 -2 0
-1 -3 0
-1 -4 0
-1 -5 0
-2 -3 0
-2 -4 0
-2 -5 0
-3 -4 0
-3 -5 0
-4 -5 0
-6 -7 0
-6 -8 0
-6 -9 0
-6 -10 0
-7 -8 0
-7 -9 0
-7 -10 0
-8 -9 0
-8 -10 0
-9 -10 0
-11 -12 0
-11 -13 0
-11 -14 0
-11 -15 0
-12 -13 0
-12 -14 0
-12 -15 0
-13 -14 0
-13 -15 0
-14 -15 0
-16 -17 0
-16 -18 0
-16 -19 0
-16 -20 0
-17 -18 0
-17 -19 0
-17 -20 0
-18 -19 0
-18 -20 0
-19 -20 0
-21 -22 0
-21 -23 0
-21 -24 0
-21 -25 0
-22 -23 0
-22 -24 0
-22 -25 0
-23 -24 0
-23 -25 0
-24 -25 0
-26 -27 0
-26 -28 0
-26 -29 0
-26 -30 0
-27 -28 0
-27 -29 0
-27 -30 0
-28 -29 0
-28 -30 0
-29 -30 0
-31 -32 0
-31 -33 0
-31 -34 0
-31 -35 0
-32 -33 0
-32 -34 0
-32 -35 0
-33 -34 0
-33 -35 0
-34 -35 0
-36 -37 0
-36 -38 0
-36 -39 0
-36 -40 0
-37 -38 0
-37 -39 0
-37 -40 0
-38 -39 0
-38 -40 0
-39 -40 0
-41 -42 0
-41 -43 0
-41 -44 0
-41 -45 0
-42 -43 0
-42 -44 0
-42 -45 0
-43 -44 0
-43 -45 0
-44 -45 0
-46 -47 0
-46 -48 0
-46 -49 0
-46 -50 0
-47 -48 0
-47 -49 0
-47 -50 0
-48 -49 0
-48 -50 0
-49 -50 0
-51 -52 0
-51 -53 0
-51 -54 0
-51 -55 0
-52 -53 0
-52 -54 0
-52 -55 0
-53 -54 0
-53 -55 0
-54 -55 0
-56 -57 0
-56 -58 0
-56 -59 0
-56 -60 0
-57 -58 0
-57 -59 0
-57 -60 0
-58 -59 0
-58 -60 0
-59 -60 0
-61 -62 0
-61 -63 0
-61 -64 0
-61 -65 0
-62 -63 0
-62 -64 0
-62 -65 0
-63 -64 0
-63 -65 0
-64 -65 0
-66 -67 0
-66 -68 0
-66 -69 0
-66 -70 0
-67 -68 0
-67 -69 0
-67 -70 0
-68 -69 0
-68 -70 0
-69 -70 0
-71 -72 0
-71 -73 0
-71 -74 0
-71 -75 0
-72 -73 0
-72 -74 0
-72 -75 0
-73 -74 0
-73 -75 0
-74 -75 0
-76 -77 0
-76 -78 0
-76 -79 0
-76 -80 0
-77 -78 0
-77 -79 0
-77 -80 0
-78 -79 0
-78 -80 0
-79 -80 0
-81 -82 0
-81 -83 0
-81 -84 0
-81 -85 0
-82 -83 0
-82 -84 0
-82 -85 0
-83 -84 0
-83 -85 0
-84 -85 0
-86 -87 0
-86 -88 0
-86 -89 0
-86 -90 0
-87 -88 0
-87 -89 0
-87 -90 0
-88 -89 0
-88 -90 0
-89 -90 0
-91 -92 0
-91 -93 0
-91 -94 0
-91 -95 0
-92 -93 0
-92 -94 0
-92 -95 0
-93 -94 0
-93 -95 0
-94 -95 0
-96 -97 0
-96 -98 0
-96 -99 0
-96 -100 0
-97 -98 0
-97 -99 0
-97 -100 0
-98 -99 0
-98 -100 0
-99 -100 0
-101 -102 0
-101 -103 0
-101 -104 0
-101 -105 0
-102 -103 0
-102 -104 0
-102 -105 0
-103 -104 0
-103 -105 0
-104 -105 0
-106 -107 0
-106 -108 0
-106 -109 0
-106 -110 0
-107 -108 0
-107 -109 0
-107 -110 0
-108 -109 0
-108 -110 0
-109 -110 0
-111 -112 0
-111 -113 0
-111 -114 0
-111 -115 0
-112 -113 0
-112 -114 0
-112 -115 0
-113 -114 0
-113 -115 0
-114 -115 0
-116 -117 0
-116 -118 0
-116 -119 0
-116 -120 0
-117 -118 0
-117 -119 0
-117 -120 0
-118 -119 0
-118 -120 0
-119 -120 0
-121 -122 0
-121 -123 0
-121 -124 0
-121 -125 0
-122 -123 0
-122 -124 0
-122 -125 0
-123 -124 0
-123 -125 0
-124 -125 0
-126 -127 0
-126 -128 0
-126 -129 0
-126 -130 0
-127 -128 0
-127 -129 0
-127 -130 0
-128 -129 0
-128 -130 0
-129 -130 0
-131 -132 0
-131 -133 0
-131 -134 0
-131 -135 0
-132 -133 0
-132 -134 0
-132 -135 0
-133 -134 0
-133 -135 0
-134 -135 0
-136 -137 0
-136 -138 0
-136 -139 0
-136 -140 0
-137 -138 0
-137 -139 0
-137 -140 0
-138 -139 0
-138 -140 0
-139 -140 0
-141 -142 0
-141 -143 0
-141 -144 0
-141 -145 0
-142 -143 0
-142 -144 0
-142 -145 0
-143 -144 0
-143 -145 0
-144 -145 0
-146 -147 0
-146 -148 0
-146 -149 0
-146 -150 0
-147 -148 0
-147 -149 0
-147 -150 0
-148 -149 0
-148 -150 0
-149 -150 0
-151 -152 0
-151 -153 0
-151 -154 0
-151 -155 0
-152 -153 0
-152 -154 0
-152 -155 0
-153 -154 0
-153 -155 0
-154 -155 0
-156 -157 0
-156 -158 0
-156 -159 0
-156 -160 0
-157 -158 0
-157 -159 0
-157 -160 0
-158 -159 0
-158 -160 0
-159 -160 0
-161 -162 0
-161 -163 0
-161 -164 0
-161 -165 0
-162 -163 0
-162 -164 0
-162 -165 0
-163 -164 0
-163 -165 0
-164 -165 0
-166 -167 0
-166 -168 0
-166 -169 0
-166 -170 0
-167 -168 0
-167 -169 0
-167 -170 0
-168 -169 0
-168 -170 0
-169 -170 0
-171 -172 0
-171 -173 0
-171 -174 0
-171 -175 0
-172 -173 0
-172 -174 0
-172 -175 0
-173 -174 0
-173 -175 0
-174 -175 0
-176 -177 0
-176 -178 0
-176 -179 0
-176 -180 0
-177 -178 0
-177 -179 0
-177 -180 0
-178 -179 0
-178 -180 0
-179 -180 0
-181 -182 0
-181 -183 0
-181 -184 0
-181 -185 0
-182 -183 0
-182 -184 0
-182 -185 0
-183 -184 0
-183 -185 0
-184 -185 0
-186 -187 0
-186 -188 0
-186 -189 0
-186 -190 0
-187 -188 0
-187 -189 0
-187 -190 0
-188 -189 0
-188 -190 0
-189 -190 0
-191 -192 0
-191 -193 0
-191 -194 0
-191 -195 0
-192 -193 0
-192 -194 0
-192 -195 0
-193 -194 0
-193 -195 0
-194 -195 0
-196 -197 0
-196 -198 0
-196 -199 0
-196 -200 0
-197 -198 0
-197 -199 0
-197 -200 0
-198 -199 0
-198 -200 0
-199 -200 0
-201 -202 0
-201 -203 0
-201 -204 0
-201 -205 0
-202 -203 0
-202 -204 0
-202 -205 0
-203 -204 0
-203 -205 0
-204 -205 0
-206 -207 0
-206 -208 0
-206 -209 0
-206 -210 0
-207 -208 0
-207 -209 0
-207 -210 0
-208 -209 0
-208 -210 0
-209 -210 0
-211 -212 0
-211 -213 0
-211 -214 0
-211 -215 0
-212 -213 0
-212 -214 0
-212 -215 0
-213 -214 0
-213 -215 0
-214 -215 0
-216 -217 0
-216 -218 0
-216 -219 0
-216 -220 0
-217 -218 0
-217 -219 0
-217 -220 0
-218 -219 0
-218 -220 0
-219 -220 0
-221 -222 0
-221 -223 0
-221 -224 0
-221 -225 0
-222 -223 0
-222 -224 0
-222 -225 0
-223 -224 0
-223 -225 0
-224 -225 0
-226 -227 0
-226 -228 0
-226 -229 0
-226 -230 0
-227 -228 0
-227 -229 0
-227 -230 0
-228 -229 0
-228 -230 0
-229 -230 0
-231 -232 0
-231 -233 0
-231 -234 0
-231 -235 0
-232 -233 0
-232 -234 0
-232 -235 0
-233 -234 0
-233 -235 0
-234 -235 0
-236 -237 0
-236 -238 0
-236 -239 0
-236 -240 0
-237 -238 0
-237 -239 0
-237 -240 0
-238 -239 0
-238 -240 0
-239 -240 0
-241 -242 0
-241 -243 0
-241 -244 0
-241 -245 0
-242 -243 0
-242 -244 0
-242 -245 0
-243 -244 0
-243 -245 0
-244 -245 0
-246 -247 0
-246 -248 0
-246 -249 0
-246 -250 0
-247 -248 0
-247 -249 0
-247 -250 0
-248 -249 0
-248 -250 0
-249 -250 0
-5 -38 0
-2 -37 0
-4 -38 0
-4 -40 0
-5 -39 0
-1 -39 0
-2 -38 0
-3 -38 0
-4 -37 0
-5 -40 0
-1 -36 0
-2 -36 0
-4 -39 0
-3 -40 0
-3 -39 0
-1 -37 0
-1 -38 0
-5 -37 0
-3 -36 0
-2 -40 0
-1 -40 0
-5 -36 0
-2 -77 0
-4 -79 0
-2 -76 0
-3 -79 0
-4 -80 0
-1 -80 0
-5 -78 0
-1 -77 0
-5 -80 0
-4 -78 0
-5 -77 0
-3 -77 0
-5 -79 0
-2 -78 0
-1 -76 0
-3 -78 0
-4 -77 0
-1 -79 0
-2 -80 0
-4 -76 0
-2 -79 0
-5 -76 0
-1 -123 0
-2 -121 0
-4 -123 0
-3 -122 0
-4 -121 0
-1 -125 0
-2 -125 0
-2 -123 0
-5 -122 0
-1 -121 0
-1 -122 0
-2 -124 0
-3 -121 0
-2 -122 0
-3 -123 0
-5 -123 0
-5 -124 0
-3 -125 0
-1 -124 0
-3 -124 0
-4 -124 0
-4 -125 0
-1 -147 0
-4 -148 0
-1 -149 0
-5 -148 0
-1 -148 0
-1 -146 0
-3 -149 0
-1 -150 0
-2 -147 0
-4 -146 0
-2 -149 0
-3 -146 0
-2 -146 0
-4 -150 0
-4 -149 0
-5 -146 0
-3 -147 0
-3 -148 0
-4 -147 0
-2 -148 0
-2 -150 0
-3 -150 0
-1 -182 0
-5 -182 0
-1 -185 0
-3 -181 0
-2 -182 0
-3 -184 0
-1 -181 0
-2 -183 0
-3 -182 0
-4 -182 0
-5 -185 0
-2 -184 0
-5 -184 0
-3 -183 0
-5 -181 0
-5 -183 0
-1 -183 0
-2 -185 0
-2 -181 0
-4 -184 0
-4 -183 0
-1 -184 0
-5 -197 0
-4 -200 0
-5 -200 0
-1 -199 0
-3 -198 0
-2 -196 0
-1 -196 0
-3 -197 0
-2 -200 0
-1 -197 0
-5 -198 0
-1 -198 0
-4 -196 0
-4 -198 0
-5 -199 0
-3 -199 0
-2 -197 0
-3 -196 0
-5 -196 0
-2 -199 0
-4 -199 0
-2 -198 0
-3 -208 0
-5 -209 0
-4 -210 0
-1 -206 0
-5 -207 0
-3 -206 0
-3 -207 0
-4 -209 0
-1 -209 0
-4 -207 0
-2 -210 0
-4 -208 0
-2 -209 0
-3 -209 0
-1 -207 0
-2 -208 0
-1 -210 0
-1 -208 0
-5 -210 0
-4 -206 0
-2 -206 0
-3 -210 0
-3 -212 0
-5 -213 0
-2 -213 0
-3 -213 0
-4 -215 0
-2 -215 0
-2 -212 0
-1 -211 0
-2 -211 0
-1 -213 0
-3 -211 0
-2 -214 0
-5 -212 0
-5 -215 0
-3 -214 0
-5 -214 0
-3 -215 0
-1 -212 0
-4 -211 0
-4 -212 0
-1 -215 0
-1 -214 0
-4 -225 0
-2 -222 0
-3 -224 0
-2 -221 0
-4 -221 0
-3 -222 0
-2 -223 0
-1 -221 0
-5 -222 0
-2 -224 0
-1 -223 0
-4 -224 0
-2 -225 0
-5 -224 0
-4 -222 0
-5 -225 0
-1 -222 0
-3 -221 0
-1 -224 0
-5 -223 0
-5 -221 0
-4 -223 0
-2 -244 0
-2 -245 0
-5 -243 0
-4 -242 0
-5 -242 0
-3 -241 0
-2 -242 0
-1 -243 0
-1 -241 0
-3 -244 0
-4 -244 0
-5 -244 0
-1 -242 0
-5 -241 0
-4 -245 0
-3 -245 0
-5 -245 0
-4 -243 0
-3 -242 0
-2 -241 0
-3 -243 0
-4 -241 0
-10 -33 0
-8 -32 0
-6 -35 0
-6 -31 0
-7 -33 0
-9 -35 0
-8 -34 0
-6 -33 0
-10 -35 0
-6 -34 0
-9 -33 0
-9 -31 0
-7 -32 0
-7 -31 0
-10 -31 0
-8 -33 0
-9 -32 0
-6 -32 0
-10 -32 0
-7 -35 0
-8 -35 0
-9 -34 0
-13 -97 0
-12 -98 0
-13 -96 0
-14 -98 0
-13 -100 0
-11 -97 0
-13 -99 0
-14 -97 0
-12 -99 0
-11 -98 0
-15 -96 0
-12 -100 0
-11 -96 0
-14 -99 0
-13 -98 0
-11 -99 0
-14 -100 0
-15 -98 0
-12 -97 0
-15 -99 0
-15 -97 0
-12 -96 0
-13 -189 0
-11 -190 0
-12 -188 0
-12 -187 0
-14 -186 0
-12 -189 0
-14 -187 0
-13 -190 0
-15 -188 0
-14 -190 0
-14 -189 0
-13 -186 0
-15 -189 0
-13 -187 0
-11 -187 0
-14 -188 0
-11 -189 0
-12 -186 0
-15 -190 0
-11 -188 0
-13 -188 0
-11 -186 0
-12 -196 0
-11 -196 0
-11 -200 0
-15 -199 0
-14 -197 0
-15 -200 0
-14 -199 0
-14 -198 0
-13 -196 0
-14 -200 0
-11 -199 0
-11 -197 0
-12 -199 0
-15 -196 0
-13 -198 0
-11 -198 0
-14 -196 0
-12 -198 0
-13 -197 0
-13 -200 0
-15 -198 0
-12 -197 0
-11 -210 0
-12 -210 0
-13 -207 0
-11 -207 0
-14 -210 0
-15 -206 0
-15 -210 0
-11 -209 0
-14 -206 0
-11 -208 0
-13 -210 0
-14 -208 0
-14 -207 0
-12 -207 0
-13 -206 0
-11 -206 0
-13 -208 0
-15 -208 0
-13 -209 0
-12 -209 0
-15 -207 0
-12 -208 0
-16 -51 0
-18 -53 0
-19 -52 0
-18 -51 0
-19 -53 0
-19 -54 0
-17 -55 0
-20 -54 0
-20 -52 0
-20 -53 0
-18 -54 0
-17 -52 0
-17 -54 0
-19 -51 0
-20 -51 0
-16 -55 0
-16 -52 0
-20 -55 0
-19 -55 0
-16 -53 0
-18 -52 0
-17 -51 0
-16 -70 0
-18 -67 0
-17 -70 0
-17 -68 0
-20 -66 0
-17 -69 0
-20 -68 0
-17 -66 0
-19 -69 0
-19 -66 0
-16 -66 0
-18 -70 0
-18 -69 0
-20 -67 0
-16 -69 0
-18 -68 0
-19 -67 0
-20 -69 0
-20 -70 0
-19 -70 0
-19 -68 0
-16 -68 0
-16 -132 0
-16 -135 0
-16 -131 0
-18 -131 0
-19 -133 0
-19 -131 0
-17 -132 0
-19 -132 0
-20 -131 0
-18 -132 0
-20 -132 0
-18 -134 0
-18 -135 0
-20 -134 0
-19 -134 0
-17 -133 0
-18 -133 0
-16 -133 0
-17 -135 0
-16 -134 0
-20 -135 0
-19 -135 0
-17 -150 0
-16 -147 0
-19 -148 0
-16 -149 0
-19 -150 0
-19 -147 0
-17 -149 0
-17 -148 0
-20 -150 0
-20 -148 0
-18 -147 0
-18 -150 0
-18 -149 0
-19 -149 0
-16 -148 0
-20 -146 0
-20 -149 0
-17 -147 0
-18 -148 0
-16 -150 0
-16 -146 0
-17 -146 0
-17 -151 0
-19 -151 0
-16 -151 0
-20 -151 0
-20 -155 0
-18 -151 0
-17 -155 0
-17 -154 0
-16 -155 0
-16 -153 0
-17 -153 0
-17 -152 0
-18 -154 0
-18 -152 0
-16 -152 0
-18 -153 0
-19 -152 0
-20 -153 0
-19 -154 0
-20 -152 0
-18 -155 0
-16 -154 0
-19 -208 0
-16 -208 0
-18 -206 0
-20 -207 0
-20 -209 0
-20 -208 0
-19 -210 0
-18 -210 0
-17 -210 0
-17 -206 0
-17 -208 0
-17 -209 0
-18 -207 0
-17 -207 0
-16 -210 0
-18 -208 0
-16 -206 0
-19 -206 0
-20 -210 0
-20 -206 0
-16 -207 0
-16 -209 0
-16 -229 0
-17 -226 0
-16 -227 0
-17 -227 0
-19 -228 0
-16 -230 0
-19 -226 0
-20 -226 0
-20 -229 0
-19 -229 0
-20 -230 0
-18 -227 0
-17 -229 0
-16 -226 0
-16 -228 0
-20 -227 0
-18 -230 0
-19 -230 0
-17 -230 0
-18 -226 0
-18 -229 0
-17 -228 0
-19 -244 0
-20 -244 0
-16 -244 0
-17 -241 0
-18 -241 0
-16 -241 0
-17 -244 0
-18 -243 0
-19 -242 0
-20 -245 0
-19 -245 0
-17 -242 0
-18 -245 0
-19 -243 0
-19 -241 0
-18 -244 0
-16 -242 0
-20 -241 0
-16 -245 0
-18 -242 0
-16 -243 0
-17 -245 0
-25 -26 0
-22 -27 0
-23 -27 0
-21 -26 0
-23 -28 0
-25 -27 0
-21 -28 0
-25 -28 0
-22 -29 0
-23 -26 0
-23 -30 0
-21 -29 0
-24 -27 0
-24 -28 0
-21 -27 0
-25 -29 0
-21 -30 0
-24 -26 0
-22 -26 0
-22 -28 0
-22 -30 0
-23 -29 0
-21 -35 0
-24 -31 0
-24 -33 0
-21 -34 0
-24 -35 0
-22 -33 0
-25 -31 0
-22 -35 0
-25 -35 0
-23 -33 0
-22 -32 0
-25 -33 0
-23 -32 0
-23 -34 0
-24 -32 0
-21 -32 0
-23 -35 0
-21 -33 0
-23 -31 0
-25 -34 0
-24 -34 0
-22 -34 0
-22 -104 0
-21 -104 0
-23 -104 0
-25 -104 0
-22 -103 0
-21 -105 0
-25 -105 0
-23 -105 0
-23 -101 0
-21 -102 0
-24 -102 0
-24 -105 0
-21 -103 0
-25 -103 0
-25 -101 0
-23 -102 0
-21 -101 0
-24 -103 0
-24 -101 0
-22 -101 0
-22 -105 0
-24 -104 0
-23 -115 0
-25 -111 0
-21 -111 0
-21 -114 0
-25 -113 0
-24 -111 0
-24 -115 0
-22 -115 0
-23 -113 0
-22 -112 0
-21 -112 0
-23 -114 0
-23 -112 0
-24 -112 0
-21 -115 0
-21 -113 0
-24 -113 0
-25 -115 0
-23 -111 0
-25 -112 0
-22 -113 0
-24 -114 0
-24 -150 0
-21 -147 0
-24 -148 0
-21 -150 0
-25 -149 0
-25 -148 0
-25 -147 0
-24 -147 0
-23 -148 0
-24 -149 0
-25 -150 0
-22 -148 0
-23 -149 0
-23 -150 0
-21 -149 0
-23 -147 0
-24 -146 0
-23 -146 0
-21 -148 0
-22 -146 0
-22 -147 0
-22 -149 0
-22 -197 0
-25 -199 0
-22 -199 0
-25 -196 0
-21 -200 0
-21 -196 0
-23 -196 0
-21 -198 0
-23 -199 0
-25 -200 0
-21 -197 0
-25 -198 0
-24 -199 0
-24 -197 0
-24 -198 0
-24 -196 0
-22 -196 0
-22 -198 0
-21 -199 0
-24 -200 0
-22 -200 0
-23 -197 0
-30 -90 0
-26 -86 0
-27 -87 0
-26 -88 0
-28 -89 0
-29 -87 0
-30 -87 0
-29 -86 0
-29 -90 0
-27 -89 0
-27 -86 0
-26 -89 0
-30 -89 0
-29 -89 0
-30 -88 0
-30 -86 0
-28 -86 0
-28 -90 0
-28 -88 0
-27 -90 0
-27 -88 0
-29 -88 0
-26 -115 0
-29 -112 0
-30 -113 0
-27 -113 0
-30 -112 0
-29 -115 0
-26 -112 0
-30 -114 0
-30 -115 0
-27 -112 0
-29 -113 0
-30 -111 0
-27 -115 0
-27 -111 0
-28 -112 0
-26 -111 0
-26 -114 0
-28 -111 0
-28 -114 0
-28 -113 0
-27 -114 0
-29 -114 0
-33 -38 0
-33 -37 0
-33 -40 0
-35 -39 0
-33 -39 0
-32 -36 0
-34 -39 0
-32 -38 0
-33 -36 0
-32 -37 0
-31 -38 0
-35 -36 0
-35 -38 0
-32 -39 0
-34 -37 0
-31 -36 0
-34 -40 0
-31 -40 0
-35 -40 0
-34 -38 0
-31 -39 0
-31 -37 0
-33 -66 0
-33 -69 0
-32 -67 0
-33 -68 0
-31 -67 0
-33 -67 0
-34 -67 0
-32 -69 0
-35 -69 0
-34 -69 0
-34 -68 0
-31 -66 0
-35 -66 0
-34 -70 0
-35 -68 0
-31 -69 0
-31 -68 0
-32 -68 0
-34 -66 0
-35 -67 0
-31 -70 0
-35 -70 0
-35 -106 0
-31 -106 0
-35 -110 0
-33 -106 0
-31 -107 0
-33 -109 0
-35 -107 0
-35 -109 0
-34 -110 0
-33 -108 0
-31 -110 0
-31 -108 0
-34 -109 0
-31 -109 0
-33 -107 0
-33 -110 0
-35 -108 0
-34 -107 0
-34 -108 0
-32 -106 0
-32 -107 0
-32 -109 0
-32 -159 0
-31 -158 0
-35 -160 0
-34 -160 0
-35 -156 0
-34 -156 0
-33 -157 0
-35 -159 0
-33 -160 0
-32 -160 0
-34 -159 0
-33 -158 0
-31 -157 0
-35 -158 0
-34 -158 0
-31 -156 0
-35 -157 0
-32 -157 0
-33 -159 0
-34 -157 0
-33 -156 0
-31 -159 0
-34 -199 0
-34 -196 0
-35 -196 0
-32 -198 0
-31 -196 0
-33 -198 0
-32 -199 0
-34 -198 0
-34 -197 0
-33 -197 0
-31 -200 0
-31 -197 0
-32 -197 0
-31 -198 0
-35 -197 0
-33 -200 0
-32 -200 0
-31 -199 0
-33 -196 0
-33 -199 0
-35 -200 0
-35 -199 0
-39 -118 0
-36 -117 0
-38 -120 0
-38 -118 0
-37 -120 0
-36 -119 0
-40 -117 0
-40 -118 0
-39 -116 0
-38 -117 0
-37 -118 0
-40 -116 0
-39 -117 0
-36 -116 0
-36 -120 0
-39 -119 0
-39 -120 0
-37 -116 0
-37 -119 0
-37 -117 0
-38 -116 0
-36 -118 0
-42 -68 0
-43 -67 0
-43 -70 0
-41 -66 0
-45 -67 0
-42 -67 0
-41 -70 0
-45 -66 0
-44 -67 0
-41 -67 0
-41 -68 0
-43 -68 0
-44 -68 0
-44 -70 0
-44 -69 0
-43 -66 0
-42 -69 0
-42 -70 0
-44 -66 0
-42 -66 0
-43 -69 0
-45 -70 0
-45 -104 0
-44 -105 0
-43 -103 0
-42 -103 0
-44 -103 0
-42 -101 0
-41 -104 0
-45 -103 0
-42 -102 0
-41 -102 0
-42 -104 0
-44 -104 0
-44 -102 0
-41 -105 0
-43 -102 0
-41 -101 0
-42 -105 0
-43 -105 0
-41 -103 0
-43 -101 0
-45 -105 0
-43 -104 0
-43 -166 0
-42 -167 0
-41 -169 0
-42 -169 0
-43 -168 0
-45 -167 0
-44 -166 0
-41 -170 0
-45 -170 0
-43 -170 0
-44 -167 0
-45 -169 0
-43 -169 0
-44 -168 0
-45 -166 0
-42 -166 0
-42 -168 0
-41 -166 0
-44 -169 0
-41 -168 0
-42 -170 0
-41 -167 0
-44 -229 0
-43 -230 0
-44 -226 0
-45 -226 0
-42 -226 0
-44 -230 0
-43 -228 0
-41 -227 0
-42 -230 0
-43 -226 0
-41 -226 0
-41 -230 0
-44 -227 0
-41 -228 0
-41 -229 0
-43 -229 0
-45 -227 0
-45 -229 0
-42 -228 0
-42 -229 0
-45 -230 0
-42 -227 0
-50 -109 0
-47 -106 0
-49 -106 0
-50 -108 0
-47 -110 0
-48 -108 0
-47 -108 0
-48 -107 0
-49 -109 0
-48 -106 0
-46 -107 0
-47 -109 0
-49 -107 0
-46 -106 0
-46 -108 0
-50 -107 0
-49 -108 0
-46 -109 0
-50 -106 0
-49 -110 0
-48 -110 0
-50 -110 0
-48 -119 0
-48 -117 0
-48 -116 0
-50 -117 0
-46 -116 0
-47 -118 0
-49 -120 0
-50 -119 0
-46 -118 0
-46 -119 0
-47 -116 0
-46 -120 0
-49 -118 0
-47 -117 0
-47 -120 0
-48 -118 0
-50 -118 0
-48 -120 0
-46 -117 0
-49 -117 0
-49 -119 0
-50 -116 0
-49 -190 0
-50 -189 0
-47 -188 0
-49 -186 0
-46 -186 0
-50 -187 0
-50 -190 0
-49 -188 0
-46 -188 0
-50 -186 0
-49 -189 0
-47 -189 0
-49 -187 0
-48 -187 0
-47 -186 0
-48 -186 0
-46 -190 0
-47 -187 0
-47 -190 0
-48 -188 0
-50 -188 0
-46 -187 0
-46 -203 0
-49 -202 0
-46 -205 0
-48 -201 0
-50 -205 0
-49 -203 0
-48 -205 0
-49 -205 0
-50 -204 0
-47 -202 0
-50 -201 0
-47 -201 0
-46 -202 0
-49 -201 0
-48 -203 0
-48 -204 0
-47 -203 0
-49 -204 0
-50 -203 0
-46 -201 0
-47 -205 0
-47 -204 0
-52 -114 0
-55 -113 0
-53 -115 0
-55 -111 0
-52 -113 0
-52 -115 0
-52 -112 0
-54 -113 0
-54 -111 0
-51 -111 0
-51 -112 0
-53 -112 0
-55 -115 0
-55 -112 0
-53 -114 0
-51 -114 0
-52 -111 0
-54 -115 0
-51 -113 0
-53 -113 0
-55 -114 0
-54 -112 0
-51 -204 0
-55 -201 0
-53 -202 0
-52 -204 0
-54 -201 0
-55 -202 0
-55 -203 0
-53 -201 0
-51 -205 0
-53 -205 0
-52 -202 0
-54 -202 0
-55 -204 0
-51 -203 0
-54 -203 0
-53 -203 0
-53 -204 0
-51 -201 0
-52 -205 0
-51 -202 0
-54 -205 0
-54 -204 0
-51 -213 0
-52 -212 0
-53 -214 0
-51 -215 0
-54 -211 0
-53 -212 0
-55 -213 0
-53 -213 0
-53 -215 0
-54 -214 0
-53 -211 0
-52 -215 0
-54 -213 0
-52 -213 0
-55 -212 0
-51 -211 0
-52 -211 0
-54 -215 0
-52 -214 0
-55 -215 0
-55 -211 0
-54 -212 0
-54 -238 0
-52 -238 0
-54 -237 0
-51 -239 0
-55 -238 0
-54 -239 0
-52 -237 0
-51 -240 0
-52 -236 0
-53 -238 0
-54 -236 0
-53 -236 0
-55 -236 0
-54 -240 0
-55 -240 0
-55 -239 0
-53 -239 0
-51 -238 0
-53 -237 0
-52 -240 0
-55 -237 0
-53 -240 0
-60 -156 0
-56 -160 0
-56 -159 0
-57 -157 0
-60 -157 0
-59 -157 0
-57 -156 0
-60 -159 0
-60 -158 0
-57 -159 0
-58 -159 0
-56 -156 0
-60 -160 0
-59 -159 0
-59 -160 0
-59 -156 0
-57 -160 0
-58 -157 0
-58 -160 0
-59 -158 0
-58 -156 0
-56 -157 0
-60 -247 0
-59 -250 0
-60 -250 0
-58 -248 0
-60 -249 0
-58 -250 0
-56 -248 0
-57 -248 0
-57 -249 0
-60 -246 0
-57 -250 0
-56 -247 0
-58 -249 0
-56 -246 0
-57 -247 0
-57 -246 0
-56 -250 0
-59 -249 0
-59 -246 0
-59 -248 0
-60 -248 0
-58 -246 0
-62 -147 0
-65 -146 0
-61 -148 0
-64 -147 0
-65 -147 0
-64 -149 0
-63 -150 0
-63 -148 0
-64 -150 0
-61 -146 0
-62 -150 0
-64 -146 0
-63 -146 0
-65 -148 0
-63 -149 0
-63 -147 0
-62 -146 0
-64 -148 0
-61 -149 0
-61 -147 0
-61 -150 0
-62 -149 0
-64 -157 0
-65 -156 0
-62 -156 0
-64 -156 0
-61 -156 0
-61 -158 0
-63 -156 0
-62 -159 0
-62 -160 0
-64 -160 0
-62 -158 0
-65 -157 0
-61 -157 0
-62 -157 0
-65 -158 0
-61 -160 0
-64 -159 0
-63 -159 0
-64 -158 0
-63 -157 0
-63 -160 0
-61 -159 0
-61 -238 0
-64 -238 0
-63 -239 0
-65 -238 0
-62 -240 0
-65 -237 0
-62 -237 0
-62 -238 0
-63 -238 0
-64 -237 0
-62 -239 0
-65 -240 0
-65 -236 0
-65 -239 0
-64 -236 0
-61 -240 0
-63 -237 0
-64 -239 0
-63 -236 0
-61 -237 0
-64 -240 0
-61 -236 0
-70 -94 0
-66 -92 0
-67 -92 0
-69 -91 0
-70 -91 0
-68 -94 0
-70 -95 0
-69 -95 0
-69 -94 0
-67 -94 0
-66 -91 0
-66 -94 0
-70 -92 0
-68 -93 0
-67 -91 0
-69 -93 0
-68 -95 0
-68 -92 0
-66 -93 0
-69 -92 0
-68 -91 0
-70 -93 0
-70 -141 0
-68 -144 0
-69 -143 0
-67 -141 0
-68 -142 0
-69 -144 0
-70 -145 0
-70 -142 0
-66 -141 0
-69 -141 0
-67 -145 0
-66 -145 0
-69 -142 0
-68 -141 0
-67 -142 0
-66 -144 0
-68 -143 0
-66 -142 0
-66 -143 0
-70 -143 0
-70 -144 0
-67 -144 0
-66 -178 0
-67 -179 0
-67 -176 0
-66 -176 0
-67 -178 0
-68 -177 0
-69 -180 0
-70 -177 0
-70 -180 0
-70 -178 0
-69 -177 0
-69 -179 0
-66 -180 0
-70 -179 0
-66 -177 0
-68 -180 0
-66 -179 0
-70 -176 0
-68 -176 0
-67 -177 0
-69 -176 0
-68 -179 0
-70 -214 0
-66 -211 0
-67 -214 0
-70 -213 0
-69 -211 0
-66 -214 0
-70 -212 0
-67 -213 0
-67 -212 0
-69 -214 0
-68 -213 0
-70 -211 0
-67 -215 0
-66 -213 0
-66 -212 0
-69 -213 0
-68 -214 0
-68 -211 0
-68 -212 0
-66 -215 0
-70 -215 0
-69 -215 0
-71 -139 0
-75 -136 0
-74 -139 0
-71 -140 0
-74 -140 0
-73 -140 0
-73 -138 0
-71 -137 0
-75 -137 0
-73 -139 0
-71 -136 0
-73 -137 0
-75 -139 0
-73 -136 0
-72 -140 0
-74 -137 0
-71 -138 0
-72 -137 0
-72 -138 0
-72 -139 0
-75 -140 0
-74 -138 0
-76 -95 0
-80 -94 0
-79 -94 0
-76 -93 0
-79 -93 0
-79 -91 0
-78 -94 0
-78 -91 0
-79 -95 0
-78 -93 0
-76 -91 0
-77 -95 0
-80 -92 0
-80 -95 0
-80 -93 0
-78 -92 0
-77 -93 0
-77 -91 0
-76 -94 0
-79 -92 0
-76 -92 0
-80 -91 0
-76 -135 0
-76 -131 0
-76 -133 0
-79 -132 0
-80 -134 0
-78 -134 0
-78 -133 0
-80 -132 0
-79 -135 0
-80 -135 0
-77 -135 0
-78 -131 0
-76 -132 0
-76 -134 0
-77 -131 0
-77 -134 0
-79 -131 0
-80 -133 0
-79 -133 0
-78 -135 0
-78 -132 0
-79 -134 0
-85 -94 0
-85 -93 0
-83 -92 0
-82 -93 0
-83 -95 0
-81 -95 0
-82 -95 0
-81 -93 0
-83 -94 0
-81 -92 0
-84 -95 0
-82 -94 0
-85 -92 0
-84 -94 0
-81 -91 0
-85 -91 0
-84 -92 0
-83 -93 0
-84 -91 0
-83 -91 0
-81 -94 0
-84 -93 0
-81 -103 0
-82 -101 0
-84 -102 0
-82 -105 0
-83 -103 0
-83 -101 0
-82 -104 0
-81 -101 0
-85 -104 0
-83 -104 0
-85 -103 0
-85 -105 0
-83 -102 0
-84 -105 0
-81 -102 0
-81 -105 0
-84 -104 0
-85 -101 0
-84 -101 0
-82 -102 0
-85 -102 0
-82 -103 0
-81 -109 0
-84 -106 0
-85 -108 0
-81 -106 0
-84 -110 0
-83 -106 0
-84 -107 0
-83 -110 0
-84 -108 0
-82 -109 0
-82 -110 0
-85 -109 0
-84 -109 0
-82 -106 0
-81 -110 0
-81 -107 0
-83 -107 0
-85 -106 0
-83 -108 0
-82 -108 0
-85 -107 0
-85 -110 0
-81 -119 0
-85 -120 0
-83 -119 0
-81 -116 0
-81 -117 0
-83 -120 0
-82 -118 0
-85 -118 0
-81 -118 0
-82 -120 0
-82 -116 0
-84 -116 0
-83 -116 0
-81 -120 0
-84 -118 0
-82 -119 0
-83 -117 0
-85 -117 0
-82 -117 0
-84 -120 0
-84 -117 0
-85 -116 0
-81 -132 0
-85 -132 0
-83 -134 0
-85 -134 0
-82 -131 0
-84 -132 0
-85 -133 0
-84 -134 0
-83 -135 0
-81 -134 0
-82 -134 0
-82 -132 0
-84 -135 0
-83 -133 0
-81 -135 0
-81 -133 0
-82 -135 0
-84 -133 0
-84 -131 0
-85 -135 0
-83 -131 0
-82 -133 0
-83 -139 0
-85 -140 0
-81 -139 0
-81 -137 0
-83 -136 0
-84 -137 0
-84 -139 0
-85 -137 0
-84 -140 0
-82 -138 0
-82 -139 0
-84 -136 0
-81 -138 0
-82 -140 0
-85 -138 0
-82 -137 0
-85 -139 0
-82 -136 0
-85 -136 0
-83 -138 0
-83 -140 0
-81 -140 0
-83 -158 0
-82 -160 0
-85 -156 0
-83 -157 0
-83 -159 0
-82 -157 0
-85 -159 0
-83 -160 0
-85 -160 0
-83 -156 0
-81 -156 0
-81 -159 0
-82 -159 0
-84 -156 0
-85 -158 0
-84 -159 0
-82 -156 0
-81 -158 0
-84 -160 0
-81 -157 0
-81 -160 0
-82 -158 0
-85 -162 0
-83 -162 0
-81 -164 0
-81 -165 0
-81 -161 0
-85 -165 0
-82 -163 0
-83 -164 0
-84 -161 0
-81 -162 0
-82 -162 0
-83 -161 0
-81 -163 0
-83 -165 0
-85 -163 0
-84 -162 0
-82 -164 0
-84 -165 0
-83 -163 0
-84 -164 0
-85 -164 0
-82 -161 0
-82 -205 0
-84 -202 0
-85 -204 0
-81 -203 0
-85 -205 0
-85 -201 0
-85 -202 0
-83 -204 0
-85 -203 0
-81 -204 0
-84 -203 0
-84 -205 0
-84 -204 0
-83 -203 0
-84 -201 0
-82 -203 0
-82 -204 0
-83 -201 0
-81 -202 0
-82 -201 0
-83 -202 0
-81 -201 0
-85 -236 0
-85 -239 0
-82 -240 0
-85 -237 0
-83 -239 0
-82 -239 0
-81 -236 0
-84 -237 0
-84 -238 0
-85 -240 0
-81 -238 0
-82 -237 0
-84 -240 0
-83 -236 0
-82 -236 0
-81 -237 0
-83 -238 0
-85 -238 0
-84 -239 0
-82 -238 0
-83 -237 0
-81 -239 0
-88 -213 0
-90 -212 0
-88 -215 0
-86 -215 0
-86 -212 0
-90 -214 0
-88 -211 0
-88 -214 0
-87 -213 0
-87 -214 0
-89 -214 0
-90 -211 0
-89 -215 0
-89 -211 0
-90 -215 0
-89 -213 0
-87 -211 0
-86 -213 0
-87 -212 0
-88 -212 0
-86 -211 0
-89 -212 0
-90 -229 0
-90 -227 0
-89 -228 0
-88 -229 0
-87 -227 0
-90 -228 0
-86 -230 0
-87 -228 0
-88 -230 0
-87 -226 0
-89 -226 0
-90 -230 0
-86 -228 0
-88 -226 0
-89 -230 0
-86 -226 0
-89 -229 0
-88 -227 0
-86 -227 0
-90 -226 0
-86 -229 0
-87 -230 0
-86 -235 0
-86 -232 0
-90 -233 0
-90 -231 0
-90 -235 0
-87 -235 0
-90 -232 0
-87 -232 0
-86 -233 0
-87 -231 0
-89 -235 0
-86 -234 0
-89 -232 0
-87 -233 0
-88 -233 0
-86 -231 0
-88 -231 0
-90 -234 0
-89 -234 0
-89 -233 0
-88 -235 0
-88 -232 0
-90 -236 0
-89 -239 0
-87 -237 0
-90 -239 0
-89 -240 0
-88 -238 0
-89 -236 0
-87 -236 0
-86 -237 0
-88 -237 0
-88 -236 0
-90 -238 0
-87 -240 0
-90 -237 0
-87 -239 0
-86 -236 0
-86 -239 0
-88 -239 0
-87 -238 0
-88 -240 0
-89 -238 0
-90 -240 0
-91 -188 0
-92 -187 0
-95 -189 0
-93 -188 0
-92 -190 0
-94 -189 0
-91 -190 0
-93 -189 0
-93 -187 0
-92 -186 0
-91 -189 0
-91 -186 0
-93 -186 0
-94 -188 0
-92 -189 0
-95 -187 0
-94 -190 0
-95 -188 0
-93 -190 0
-94 -186 0
-95 -186 0
-95 -190 0
-92 -202 0
-92 -205 0
-93 -204 0
-95 -205 0
-94 -203 0
-95 -201 0
-93 -201 0
-93 -205 0
-95 -203 0
-93 -202 0
-95 -204 0
-92 -204 0
-94 -204 0
-92 -203 0
-91 -201 0
-95 -202 0
-92 -201 0
-94 -202 0
-94 -201 0
-91 -202 0
-91 -205 0
-91 -204 0
-91 -246 0
-95 -249 0
-93 -248 0
-95 -246 0
-93 -250 0
-94 -247 0
-93 -249 0
-91 -248 0
-92 -250 0
-93 -247 0
-94 -249 0
-95 -250 0
-94 -246 0
-92 -248 0
-93 -246 0
-92 -247 0
-94 -248 0
-91 -250 0
-92 -246 0
-91 -249 0
-91 -247 0
-95 -248 0
-99 -141 0
-98 -145 0
-97 -144 0
-96 -142 0
-99 -145 0
-100 -143 0
-99 -142 0
-100 -142 0
-100 -145 0
-96 -141 0
-97 -141 0
-98 -141 0
-98 -143 0
-96 -145 0
-97 -145 0
-100 -141 0
-96 -143 0
-100 -144 0
-98 -144 0
-99 -143 0
-97 -142 0
-99 -144 0
-98 -150 0
-96 -147 0
-97 -147 0
-98 -149 0
-99 -149 0
-96 -149 0
-97 -150 0
-100 -147 0
-99 -146 0
-100 -148 0
-97 -148 0
-100 -149 0
-99 -150 0
-98 -147 0
-99 -147 0
-98 -146 0
-100 -150 0
-98 -148 0
-99 -148 0
-96 -148 0
-96 -150 0
-96 -146 0
-101 -112 0
-101 -113 0
-101 -114 0
-105 -114 0
-102 -111 0
-103 -113 0
-104 -114 0
-105 -115 0
-102 -112 0
-103 -112 0
-103 -114 0
-105 -113 0
-101 -111 0
-105 -112 0
-104 -115 0
-104 -111 0
-102 -115 0
-102 -113 0
-103 -115 0
-103 -111 0
-102 -114 0
-101 -115 0
-101 -155 0
-102 -152 0
-102 -154 0
-103 -155 0
-105 -155 0
-102 -153 0
-104 -154 0
-104 -151 0
-101 -154 0
-105 -152 0
-103 -151 0
-101 -152 0
-105 -151 0
-105 -153 0
-104 -155 0
-103 -153 0
-104 -152 0
-102 -151 0
-101 -153 0
-103 -154 0
-102 -155 0
-104 -153 0
-105 -195 0
-104 -192 0
-102 -195 0
-103 -191 0
-104 -193 0
-101 -195 0
-103 -193 0
-102 -194 0
-104 -195 0
-103 -192 0
-105 -194 0
-102 -192 0
-102 -193 0
-105 -192 0
-101 -192 0
-104 -194 0
-102 -191 0
-101 -194 0
-101 -191 0
-105 -191 0
-103 -194 0
-105 -193 0
-106 -231 0
-110 -233 0
-106 -233 0
-106 -234 0
-109 -235 0
-110 -232 0
-109 -233 0
-107 -232 0
-106 -235 0
-109 -231 0
-107 -234 0
-108 -232 0
-107 -233 0
-110 -235 0
-107 -231 0
-106 -232 0
-109 -234 0
-108 -231 0
-108 -234 0
-110 -231 0
-109 -232 0
-108 -233 0
-111 -117 0
-112 -119 0
-115 -117 0
-114 -118 0
-111 -119 0
-112 -117 0
-115 -120 0
-114 -116 0
-115 -116 0
-115 -119 0
-112 -118 0
-115 -118 0
-111 -118 0
-111 -116 0
-112 -120 0
-114 -119 0
-113 -120 0
-113 -116 0
-114 -120 0
-114 -117 0
-112 -116 0
-111 -120 0
-111 -131 0
-115 -135 0
-111 -133 0
-112 -133 0
-115 -134 0
-114 -134 0
-114 -135 0
-114 -131 0
-114 -133 0
-115 -133 0
-113 -133 0
-114 -132 0
-111 -135 0
-112 -131 0
-115 -131 0
-113 -132 0
-113 -134 0
-112 -132 0
-112 -135 0
-113 -131 0
-111 -132 0
-113 -135 0
-118 -157 0
-117 -159 0
-119 -159 0
-116 -158 0
-118 -159 0
-119 -156 0
-117 -158 0
-120 -156 0
-120 -157 0
-120 -160 0
-119 -160 0
-118 -158 0
-119 -157 0
-120 -159 0
-118 -160 0
-120 -158 0
-116 -159 0
-117 -160 0
-117 -157 0
-116 -156 0
-117 -156 0
-118 -156 0
-125 -158 0
-123 -157 0
-122 -160 0
-123 -160 0
-124 -158 0
-121 -160 0
-121 -157 0
-123 -159 0
-122 -158 0
-122 -157 0
-125 -157 0
-121 -159 0
-124 -157 0
-125 -156 0
-124 -156 0
-121 -156 0
-125 -159 0
-122 -156 0
-123 -158 0
-124 -159 0
-121 -158 0
-125 -160 0
-121 -163 0
-123 -165 0
-124 -163 0
-125 -164 0
-121 -165 0
-124 -162 0
-121 -161 0
-123 -163 0
-123 -161 0
-125 -161 0
-125 -165 0
-124 -165 0
-122 -162 0
-122 -164 0
-122 -165 0
-121 -162 0
-124 -161 0
-121 -164 0
-124 -164 0
-125 -162 0
-123 -162 0
-125 -163 0
-124 -214 0
-124 -215 0
-122 -213 0
-124 -213 0
-123 -212 0
-125 -212 0
-121 -214 0
-123 -215 0
-125 -211 0
-122 -212 0
-121 -211 0
-125 -213 0
-121 -213 0
-121 -212 0
-124 -211 0
-122 -215 0
-122 -211 0
-123 -211 0
-125 -214 0
-121 -215 0
-123 -213 0
-124 -212 0
-130 -249 0
-128 -248 0
-126 -247 0
-127 -248 0
-127 -249 0
-129 -248 0
-130 -247 0
-129 -247 0
-128 -250 0
-127 -247 0
-129 -246 0
-128 -249 0
-126 -250 0
-128 -246 0
-127 -250 0
-130 -248 0
-126 -249 0
-127 -246 0
-129 -249 0
-130 -246 0
-129 -250 0
-126 -248 0
-132 -172 0
-131 -173 0
-135 -175 0
-132 -171 0
-131 -172 0
-133 -171 0
-131 -175 0
-132 -174 0
-135 -172 0
-133 -175 0
-135 -174 0
-135 -171 0
-134 -175 0
-133 -172 0
-133 -173 0
-133 -174 0
-134 -173 0
-134 -171 0
-134 -174 0
-131 -174 0
-132 -173 0
-135 -173 0
-131 -184 0
-134 -182 0
-135 -185 0
-135 -184 0
-133 -183 0
-132 -183 0
-135 -183 0
-133 -184 0
-134 -181 0
-134 -184 0
-132 -185 0
-131 -182 0
-132 -184 0
-131 -185 0
-134 -185 0
-132 -182 0
-133 -185 0
-131 -183 0
-131 -181 0
-134 -183 0
-135 -182 0
-132 -181 0
-132 -229 0
-131 -228 0
-135 -226 0
-135 -230 0
-132 -228 0
-135 -228 0
-131 -230 0
-131 -229 0
-134 -229 0
-133 -227 0
-134 -230 0
-131 -226 0
-133 -226 0
-135 -227 0
-131 -227 0
-134 -228 0
-133 -229 0
-132 -226 0
-133 -230 0
-134 -226 0
-132 -230 0
-135 -229 0
-140 -165 0
-138 -161 0
-139 -165 0
-138 -164 0
-138 -163 0
-137 -164 0
-138 -165 0
-137 -162 0
-139 -161 0
-139 -163 0
-140 -161 0
-136 -161 0
-136 -164 0
-140 -163 0
-138 -162 0
-136 -165 0
-139 -164 0
-136 -163 0
-139 -162 0
-140 -164 0
-137 -163 0
-137 -161 0
-138 -187 0
-140 -187 0
-136 -188 0
-136 -189 0
-137 -188 0
-139 -187 0
-139 -190 0
-138 -189 0
-136 -190 0
-136 -186 0
-137 -189 0
-138 -186 0
-139 -189 0
-137 -190 0
-140 -186 0
-137 -186 0
-137 -187 0
-140 -190 0
-138 -188 0
-139 -188 0
-140 -188 0
-140 -189 0
-144 -155 0
-141 -151 0
-144 -154 0
-145 -154 0
-143 -153 0
-142 -151 0
-143 -154 0
-143 -152 0
-145 -153 0
-141 -153 0
-143 -155 0
-144 -152 0
-144 -151 0
-142 -155 0
-142 -153 0
-141 -152 0
-145 -151 0
-145 -152 0
-144 -153 0
-142 -154 0
-142 -152 0
-141 -154 0
-145 -161 0
-145 -163 0
-142 -165 0
-143 -163 0
-142 -164 0
-144 -163 0
-144 -161 0
-141 -164 0
-144 -162 0
-145 -165 0
-143 -162 0
-143 -161 0
-145 -164 0
-144 -165 0
-141 -163 0
-144 -164 0
-142 -162 0
-143 -164 0
-145 -162 0
-141 -162 0
-141 -161 0
-143 -165 0
-149 -221 0
-147 -221 0
-146 -225 0
-150 -223 0
-146 -224 0
-150 -222 0
-147 -222 0
-148 -224 0
-146 -221 0
-149 -223 0
-149 -225 0
-149 -222 0
-147 -224 0
-146 -223 0
-147 -223 0
-147 -225 0
-148 -221 0
-148 -223 0
-149 -224 0
-150 -221 0
-146 -222 0
-148 -225 0
-152 -176 0
-154 -177 0
-154 -180 0
-153 -179 0
-152 -177 0
-154 -176 0
-153 -177 0
-155 -178 0
-152 -178 0
-151 -179 0
-151 -180 0
-154 -178 0
-155 -179 0
-153 -180 0
-152 -179 0
-152 -180 0
-151 -176 0
-153 -178 0
-155 -176 0
-151 -178 0
-155 -177 0
-151 -177 0
-160 -165 0
-159 -162 0
-160 -162 0
-158 -164 0
-156 -164 0
-156 -161 0
-157 -162 0
-159 -165 0
-156 -162 0
-159 -163 0
-157 -164 0
-157 -165 0
-160 -164 0
-159 -161 0
-159 -164 0
-158 -165 0
-158 -161 0
-157 -161 0
-158 -163 0
-160 -161 0
-157 -163 0
-158 -162 0
-157 -198 0
-156 -197 0
-156 -198 0
-158 -196 0
-159 -199 0
-156 -199 0
-158 -200 0
-158 -198 0
-159 -197 0
-157 -197 0
-158 -199 0
-160 -196 0
-156 -200 0
-157 -199 0
-159 -196 0
-157 -200 0
-159 -198 0
-156 -196 0
-160 -200 0
-160 -197 0
-159 -200 0
-158 -197 0
-159 -209 0
-156 -206 0
-160 -209 0
-158 -208 0
-160 -207 0
-157 -206 0
-158 -206 0
-156 -207 0
-159 -207 0
-158 -209 0
-158 -210 0
-160 -210 0
-160 -208 0
-157 -209 0
-157 -210 0
-156 -209 0
-157 -208 0
-159 -206 0
-159 -210 0
-158 -207 0
-156 -210 0
-160 -206 0
-158 -214 0
-160 -212 0
-156 -214 0
-159 -211 0
-159 -213 0
-160 -214 0
-160 -213 0
-157 -212 0
-160 -211 0
-156 -213 0
-158 -211 0
-156 -215 0
-160 -215 0
-159 -212 0
-157 -215 0
-156 -212 0
-159 -214 0
-157 -213 0
-158 -215 0
-157 -214 0
-159 -215 0
-158 -213 0
-156 -242 0
-160 -244 0
-159 -243 0
-160 -245 0
-159 -244 0
-156 -241 0
-157 -245 0
-160 -243 0
-157 -244 0
-160 -241 0
-156 -244 0
-158 -243 0
-159 -242 0
-158 -241 0
-158 -245 0
-160 -242 0
-157 -242 0
-156 -243 0
-159 -241 0
-159 -245 0
-158 -244 0
-157 -241 0
-160 -247 0
-159 -246 0
-156 -246 0
-160 -246 0
-157 -246 0
-159 -249 0
-159 -247 0
-158 -246 0
-158 -250 0
-156 -247 0
-157 -247 0
-159 -250 0
-160 -250 0
-157 -248 0
-158 -248 0
-157 -250 0
-158 -247 0
-156 -249 0
-157 -249 0
-159 -248 0
-156 -248 0
-160 -248 0
-170 -230 0
-166 -227 0
-170 -228 0
-166 -229 0
-167 -230 0
-170 -226 0
-167 -226 0
-167 -228 0
-166 -226 0
-168 -229 0
-166 -228 0
-168 -226 0
-167 -227 0
-167 -229 0
-169 -227 0
-168 -227 0
-169 -229 0
-168 -228 0
-170 -229 0
-170 -227 0
-169 -230 0
-169 -226 0
-170 -250 0
-166 -250 0
-166 -249 0
-166 -247 0
-169 -249 0
-170 -248 0
-168 -246 0
-166 -248 0
-168 -249 0
-170 -246 0
-167 -247 0
-167 -249 0
-166 -246 0
-169 -248 0
-168 -248 0
-170 -247 0
-169 -246 0
-168 -250 0
-169 -250 0
-168 -247 0
-167 -246 0
-167 -250 0
-171 -192 0
-174 -195 0
-171 -194 0
-175 -193 0
-175 -195 0
-171 -195 0
-172 -193 0
-175 -192 0
-172 -194 0
-173 -192 0
-174 -194 0
-175 -191 0
-171 -191 0
-172 -191 0
-174 -192 0
-174 -191 0
-173 -191 0
-173 -194 0
-173 -193 0
-172 -195 0
-174 -193 0
-173 -195 0
-172 -199 0
-173 -200 0
-174 -198 0
-171 -198 0
-172 -197 0
-171 -199 0
-174 -197 0
-174 -199 0
-175 -199 0
-173 -197 0
-172 -200 0
-174 -196 0
-171 -200 0
-173 -196 0
-172 -196 0
-173 -199 0
-175 -198 0
-171 -196 0
-175 -200 0
-173 -198 0
-171 -197 0
-174 -200 0
-174 -222 0
-175 -223 0
-173 -221 0
-172 -222 0
-175 -222 0
-171 -225 0
-173 -223 0
-171 -221 0
-175 -221 0
-175 -225 0
-171 -223 0
-173 -225 0
-172 -221 0
-174 -223 0
-172 -225 0
-172 -223 0
-171 -224 0
-174 -225 0
-172 -224 0
-171 -222 0
-175 -224 0
-174 -224 0
-177 -223 0
-179 -225 0
-176 -225 0
-177 -222 0
-180 -221 0
-178 -224 0
-179 -222 0
-176 -222 0
-178 -223 0
-180 -223 0
-179 -221 0
-177 -224 0
-179 -223 0
-180 -222 0
-176 -223 0
-178 -222 0
-176 -221 0
-180 -224 0
-178 -221 0
-177 -221 0
-177 -225 0
-179 -224 0
-184 -189 0
-183 -189 0
-184 -188 0
-184 -190 0
-183 -187 0
-181 -187 0
-181 -188 0
-182 -189 0
-182 -190 0
-185 -187 0
-185 -186 0
-183 -186 0
-185 -190 0
-185 -188 0
-181 -189 0
-184 -186 0
-181 -190 0
-182 -186 0
-181 -186 0
-185 -189 0
-183 -188 0
-183 -190 0
-183 -196 0
-185 -198 0
-182 -196 0
-182 -198 0
-181 -196 0
-184 -196 0
-183 -198 0
-182 -199 0
-185 -197 0
-181 -200 0
-184 -200 0
-185 -196 0
-181 -198 0
-182 -200 0
-182 -197 0
-184 -198 0
-184 -197 0
-184 -199 0
-183 -197 0
-181 -197 0
-181 -199 0
-183 -200 0
-183 -221 0
-185 -224 0
-184 -221 0
-181 -222 0
-184 -223 0
-181 -225 0
-182 -225 0
-185 -223 0
-182 -223 0
-183 -225 0
-184 -224 0
-181 -223 0
-183 -222 0
-182 -221 0
-183 -224 0
-182 -222 0
-182 -224 0
-181 -224 0
-184 -222 0
-181 -221 0
-185 -222 0
-185 -221 0
-183 -247 0
-181 -250 0
-185 -248 0
-183 -246 0
-182 -248 0
-184 -246 0
-181 -246 0
-182 -246 0
-183 -250 0
-181 -249 0
-185 -247 0
-185 -246 0
-181 -248 0
-182 -247 0
-185 -250 0
-184 -250 0
-185 -249 0
-184 -247 0
-184 -248 0
-182 -249 0
-184 -249 0
-181 -247 0
-190 -224 0
-187 -221 0
-189 -222 0
-189 -224 0
-186 -222 0
-187 -222 0
-188 -223 0
-186 -225 0
-190 -222 0
-186 -224 0
-189 -225 0
-187 -223 0
-188 -221 0
-190 -223 0
-190 -221 0
-189 -221 0
-186 -221 0
-188 -225 0
-186 -223 0
-187 -224 0
-189 -223 0
-188 -224 0
-187 -243 0
-188 -243 0
-190 -242 0
-188 -244 0
-187 -244 0
-187 -245 0
-189 -241 0
-190 -243 0
-189 -242 0
-189 -243 0
-190 -241 0
-189 -244 0
-187 -242 0
-186 -241 0
-186 -244 0
-186 -243 0
-190 -245 0
-186 -245 0
-189 -245 0
-187 -241 0
-190 -244 0
-188 -245 0
-208 -213 0
-206 -211 0
-209 -212 0
-209 -211 0
-207 -212 0
-207 -214 0
-210 -215 0
-207 -211 0
-208 -212 0
-207 -215 0
-209 -215 0
-208 -211 0
-206 -215 0
-209 -214 0
-210 -213 0
-206 -213 0
-208 -215 0
-208 -214 0
-207 -213 0
-206 -212 0
-210 -212 0
-210 -214 0
-217 -246 0
-216 -250 0
-217 -248 0
-220 -247 0
-218 -249 0
-220 -250 0
-217 -249 0
-217 -247 0
-220 -248 0
-219 -248 0
-216 -247 0
-219 -250 0
-219 -247 0
-220 -249 0
-218 -246 0
-218 -248 0
-216 -246 0
-219 -249 0
-216 -249 0
-218 -247 0
-218 -250 0
-217 -250 0
-235 -244 0
-233 -241 0
-233 -242 0
-232 -241 0
-234 -244 0
-234 -243 0
-235 -241 0
-235 -242 0
-234 -242 0
-231 -243 0
-235 -245 0
-231 -241 0
-233 -245 0
-232 -245 0
-232 -243 0
-233 -244 0
-232 -242 0
-234 -245 0
-232 -244 0
-231 -242 0
-231 -245 0
-234 -241 0
-236 -241 0
-240 -245 0
-236 -244 0
-239 -245 0
-240 -244 0
-238 -242 0
-237 -245 0
-240 -242 0
-239 -243 0
-238 -244 0
-236 -245 0
-237 -243 0
-238 -245 0
-236 -242 0
-237 -241 0
-239 -241 0
-237 -242 0
-236 -243 0
-238 -243 0
-240 -243 0
-237 -244 0
-238 -241 0
